processors 3 2 2
  read_restart restart.thermalise
  include forcefield.TIP4P-2005
  variable Nrun equal 1000000
  variable Nf equal 100
  variable Ne equal 50
  variable Nr equal ${Nf}/${Ne}
  variable Ndump equal ${Nrun}
  variable Nr_rdf equal 0.5*${Nrun}/${Ne}
  variable watMoleMass equal 18.0153 # /(g/mol)
  variable nAvog equal 6.0221415e23 # Avogadro's number
  variable watMoleculeMass equal (${watMoleMass}/${nAvog}) # /(g/molecule)
  variable A3_in_cm3 equal 1e-24 # Angstrom^3 in cm^3
  variable nAtoms equal atoms
  variable nMolecules equal v_nAtoms/3

  neighbor 2.0 bin
  neigh_modify every 1 delay 0 check yes
  fix constrain all shake 1.0e-4 100 0 b 1 a 1


  compute T all temp
  fix TempAve all ave/time ${Ne} ${Nr} ${Nf} c_T

  variable P equal press

  compute PE all pe pair kspace
  variable PE_Mol equal c_PE/v_nMolecules
  fix PEAve_Mol all ave/time ${Ne} ${Nr} ${Nf} v_PE_Mol

  compute peratom all stress/atom NULL
  compute p all reduce sum c_peratom[1] c_peratom[2] c_peratom[3]
  variable press equal -(c_p[1]+c_p[2]+c_p[3])/(3*vol)
  #variable press equal -c_p[3]/vol
  fix PressAve all ave/time ${Ne} ${Nr} ${Nf} v_P file wat.PressAve

  variable Dens equal v_nMolecules*${watMoleculeMass}/(vol*${A3_in_cm3})
  fix DensAve all ave/time ${Ne} ${Nr} ${Nf} v_Dens file wat.dens

  compute	msd oxygen msd com yes
  fix msd oxygen ave/time 1 1 500 c_msd[4] file wat.msd

  compute rdf all rdf 1000 2 2 # oxygen-oxygen
  #fix rdf all ave/time ${Ne} ${Nr_rdf} ${Nrun} c_rdf file wat.rdf mode vector

  thermo_style custom step temp f_TempAve f_PressAve f_PEAve_Mol f_DensAve vol press
  thermo_modify flush yes
  thermo ${Nf}

  dump trj all atom 200 wat.simulation_test

  timestep 1.0
  neighbor 2.0 bin
  neigh_modify every 1 delay 0 check yes

label ZLOOP
  variable i loop 20
  #variable b equal -1000+(${i}*(-20))
  variable b equal -2100
  variable u equal 0.71*${b}
  fix 1 all npt temp 300.0 300.0 100.0 iso ${b} ${b} 1000.0
   run 20000
  unfix 1
   fix 3 all npt temp 300.0 300.0 100.0 iso ${u} ${u} 1000.0
   run 1000
   unfix 3
  #fix 2 all npt temp 300.0 300.0 100.0 iso 1 1 1000
  fix 2 all nvt temp 300.0 300.0 100.0
   run 5000
   unfix 2
   next i
jump SELF ZLOOP

